column=9;
row=9;
left=[0, 3, 0, 0, 0, 0, 3, 0, 4];
right=[5, 0, 4, 0, 3, 2, 0, 0, 0];
top=[1, 0, 3, 2, 0, 3, 2, 3, 0];
bottom=[0, 2, 0, 0, 0, 0, 5, 0, 1];
Board=[|0,0,0,8,0,0,7,0,0|4,0,8,0,0,0,0,3,2|0,6,5,3,0,0,0,0,1|8,3,9,0,0,4,5,2,0|1,0,0,0,0,6,0,8,0|0,0,4,2,8,0,0,0,7|0,8,7,0,9,2,6,1,0|0,0,0,4,0,7,0,5,0|5,4,0,1,0,8,2,7,0|]